25 40
1 2 5
1 6 5
2 3 3
2 7 4
3 4 4
3 8 3
4 5 4
4 9 2
5 10 4
6 7 1
6 11 1
7 8 4
7 12 5
8 9 2
8 13 1
9 10 5
9 14 4
10 15 2
11 12 2
11 16 4
12 13 5
12 17 1
13 14 2
13 18 1
14 15 4
14 19 5
15 20 1
16 17 2
16 21 3
17 18 3
17 22 2
18 19 2
18 23 4
19 20 3
19 24 3
20 25 5
21 22 1
22 23 5
23 24 2
24 25 5
